p cnf 22 56
2 -11 18 0
7 -9 -16 0
-1 9 -15 0
-3 7 22 0
-4 -10 14 0
-1 4 11 0
1 -7 -12 0
3 -8 16 0
4 -13 -19 0
-10 11 -12 0
6 -8 21 0
2 -11 -22 0
-12 16 17 0
1 -11 -14 0
3 -9 -13 0
-3 -11 -20 0
-6 -12 -18 0
-10 -12 21 0
-5 -12 13 0
6 8 -20 0
5 -18 20 0
-1 -2 -19 0
16 -17 19 0
14 -15 22 0
3 -14 -18 0
-11 -14 15 0
16 -18 19 0
3 -10 -18 0
6 -18 22 0
-6 -15 21 0
-6 -13 16 0
1 -5 8 0
14 -21 22 0
-5 -6 -10 0
1 -2 -16 0
-6 -18 -20 0
-5 -11 17 0
-7 10 18 0
2 7 -10 0
-7 -16 19 0
8 18 -19 0
-6 8 -19 0
-6 -11 -12 0
-4 11 -12 0
-7 -11 -12 0
11 -12 22 0
-8 9 16 0
5 -6 -16 0
-10 15 -20 0
-7 15 20 0
12 17 -21 0
2 -19 -20 0
-5 7 -14 0
2 10 13 0
4 9 22 0
4 5 17 0
